Problem:    SetCovering2
Rows:       10
Columns:    10 (10 integer, 10 binary)
Non-zeros:  70
Status:     INTEGER OPTIMAL
Objective:  z[1] = 853 (MINimum)

   No.   Row name        Activity     Lower bound   Upper bound
------ ------------    ------------- ------------- -------------
     1 ass_utente[1]
                                   3             1               
     2 ass_utente[2]
                                   1             1               
     3 ass_utente[3]
                                   1             1               
     4 ass_utente[4]
                                   1             1               
     5 ass_utente[5]
                                   1             1               
     6 z[1]                      853                             
     7 z[2]                      853                             
     8 z[3]                      853                             
     9 z[4]                      853                             
    10 z[5]                      853                             

   No. Column name       Activity     Lower bound   Upper bound
------ ------------    ------------- ------------- -------------
     1 x[1]         *              1             0             1 
     2 x[2]         *              0             0             1 
     3 x[3]         *              0             0             1 
     4 x[4]         *              0             0             1 
     5 x[5]         *              1             0             1 
     6 x[6]         *              0             0             1 
     7 x[7]         *              1             0             1 
     8 x[8]         *              0             0             1 
     9 x[9]         *              0             0             1 
    10 x[10]        *              0             0             1 

Integer feasibility conditions:

KKT.PE: max.abs.err = 0.00e+000 on row 0
        max.rel.err = 0.00e+000 on row 0
        High quality

KKT.PB: max.abs.err = 0.00e+000 on row 0
        max.rel.err = 0.00e+000 on row 0
        High quality

End of output
